c SAT Generator for power-law distributed variable frequencies
c -g u -v 20 -c 91 -k 3 -p 2.750000 -b 3.200000 -f /home/schmidt/Devel/ni-kop-sat/data/ensemble/ruf20-91/ruf20-91-164 -u 1 -U 1 -s 2736254971
p cnf 20 91
9 -10 11 0
-1 6 -8 0
1 15 -16 0
16 18 -19 0
8 10 11 0
-2 16 19 0
4 10 11 0
-3 8 10 0
-9 12 20 0
-7 15 -19 0
-4 5 -12 0
-11 12 -18 0
11 -12 16 0
12 13 -19 0
7 -13 19 0
15 -18 19 0
-7 11 15 0
-3 -7 11 0
-9 -14 16 0
-5 -9 -10 0
-4 -10 -15 0
11 -12 -20 0
-7 -8 -16 0
7 -13 16 0
3 6 7 0
-12 16 17 0
-3 7 10 0
-2 -12 14 0
1 -8 -18 0
1 -7 8 0
2 4 11 0
6 7 14 0
-3 13 18 0
10 14 -19 0
-5 -10 -17 0
1 6 -15 0
-3 -5 6 0
6 9 -10 0
6 -13 17 0
-6 9 -19 0
7 -10 18 0
-5 -6 -11 0
4 -8 -10 0
-1 -12 20 0
-8 -10 -16 0
-2 4 16 0
-1 4 8 0
-3 -6 18 0
4 -5 -16 0
-4 -8 -20 0
-4 -19 20 0
-5 6 15 0
-2 -5 6 0
1 -3 -12 0
1 6 9 0
3 8 19 0
-7 10 -13 0
-6 9 15 0
-11 13 -20 0
-1 18 20 0
-6 10 -18 0
-2 12 13 0
-3 11 17 0
2 9 -12 0
13 -15 -18 0
-11 -12 -19 0
15 -18 20 0
-12 -13 -20 0
5 -11 17 0
-13 -16 -19 0
-6 -11 18 0
3 7 18 0
-7 -11 13 0
7 -14 -15 0
-6 -16 18 0
1 6 -11 0
4 -17 -19 0
-9 -14 17 0
5 -8 -15 0
-1 -9 -12 0
2 11 -12 0
2 -8 -10 0
11 -15 -19 0
-2 12 -13 0
-5 -7 -9 0
-1 -11 -20 0
1 5 20 0
-4 -10 14 0
12 17 20 0
-2 12 17 0
-15 17 -19 0
